presolving:
(round 1, fast)       142 del vars, 43450 del conss, 0 add conss, 83778 chg bounds, 0 chg sides, 43450 chg coeffs, 0 upgd conss, 0 impls, 0 clqs
(round 2, fast)       43592 del vars, 86900 del conss, 0 add conss, 83778 chg bounds, 0 chg sides, 43450 chg coeffs, 0 upgd conss, 0 impls, 0 clqs
   (2.0s) running MILP presolver
   (2.2s) MILP presolver found nothing
   (3.1s) probing: 51/1975 (2.6%) - 0 fixings, 0 aggregations, 0 implications, 0 bound changes
   (3.1s) probing aborted: 50/50 successive totally useless probings
   (3.2s) symmetry computation started: requiring (bin +, int -, cont +), (fixed: bin -, int +, cont -)
   (3.4s) no symmetry present
presolving (3 rounds: 3 fast, 1 medium, 1 exhaustive):
 63756 deleted vars, 87184 deleted constraints, 0 added constraints, 83778 tightened bounds, 0 added holes, 0 changed sides, 43450 changed coefficients
 0 implications, 0 cliques
presolved problem has 45425 variables (1975 bin, 0 int, 0 impl, 43450 cont) and 5099 constraints
   5099 constraints of type <linear>
Presolving Time: 3.18

 time | node  | left  |LP iter|LP it/n|mem/heur|mdpt |vars |cons |rows |cuts |sepa|confs|strbr|  dualbound   | primalbound  |  gap   | compl. 
p 4.0s|     1 |     0 |   269 |     - |   locks|   0 |  45k|5099 |5099 |   0 |  0 |   0 |   0 | 9.144200e+04 | 2.779053e+08 |  Large | unknown
i 4.1s|     1 |     0 |   269 |     - |  oneopt|   0 |  45k|5099 |5099 |   0 |  0 |   0 |   0 | 9.144200e+04 | 1.405946e+07 |  Large | unknown
  4.2s|     1 |     0 |   942 |     - |   713M |   0 |  45k|5099 |5099 |   0 |  0 |   0 |   0 | 7.376981e+06 | 1.405946e+07 |  90.59%| unknown
r 4.2s|     1 |     0 |   942 |     - |simplero|   0 |  45k|5099 |5099 |   0 |  0 |   0 |   0 | 7.376981e+06 | 1.263837e+07 |  71.32%| unknown
  4.6s|     1 |     0 |  1739 |     - |   723M |   0 |  45k|5099 |5170 |  71 |  1 |   0 |   0 | 9.305952e+06 | 1.263837e+07 |  35.81%| unknown
  4.9s|     1 |     0 |  1983 |     - |   726M |   0 |  45k|5099 |5215 | 116 |  2 |   0 |   0 | 9.952391e+06 | 1.263837e+07 |  26.99%| unknown
  5.4s|     1 |     0 |  2424 |     - |   730M |   0 |  45k|5099 |5279 | 180 |  3 |   0 |   0 | 1.055875e+07 | 1.263837e+07 |  19.70%| unknown
  6.0s|     1 |     0 |  2876 |     - |   732M |   0 |  45k|5099 |5336 | 237 |  4 |   0 |   0 | 1.098565e+07 | 1.263837e+07 |  15.04%| unknown
  6.8s|     1 |     0 |  3558 |     - |   738M |   0 |  45k|5099 |5379 | 280 |  5 |   0 |   0 | 1.126751e+07 | 1.263837e+07 |  12.17%| unknown
  7.5s|     1 |     0 |  4006 |     - |   742M |   0 |  45k|5099 |5426 | 327 |  6 |   0 |   0 | 1.139504e+07 | 1.263837e+07 |  10.91%| unknown
  8.9s|     1 |     0 |  4947 |     - |   745M |   0 |  45k|5099 |5464 | 365 |  7 |   0 |   0 | 1.152044e+07 | 1.263837e+07 |   9.70%| unknown
 10.9s|     1 |     0 |  6200 |     - |   747M |   0 |  45k|5099 |5503 | 404 |  8 |   0 |   0 | 1.178626e+07 | 1.263837e+07 |   7.23%| unknown
 11.5s|     1 |     0 |  6481 |     - |   750M |   0 |  45k|5099 |5532 | 433 |  9 |   0 |   0 | 1.187510e+07 | 1.263837e+07 |   6.43%| unknown
 13.2s|     1 |     0 |  7486 |     - |   752M |   0 |  45k|5099 |5561 | 462 | 10 |   0 |   0 | 1.194515e+07 | 1.263837e+07 |   5.80%| unknown
 14.5s|     1 |     0 |  8119 |     - |   755M |   0 |  45k|5099 |5582 | 483 | 11 |   0 |   0 | 1.198432e+07 | 1.263837e+07 |   5.46%| unknown
 time | node  | left  |LP iter|LP it/n|mem/heur|mdpt |vars |cons |rows |cuts |sepa|confs|strbr|  dualbound   | primalbound  |  gap   | compl. 
 15.7s|     1 |     0 |  8816 |     - |   757M |   0 |  45k|5099 |5597 | 498 | 12 |   0 |   0 | 1.200292e+07 | 1.263837e+07 |   5.29%| unknown
 17.5s|     1 |     0 |  9645 |     - |   759M |   0 |  45k|5099 |5615 | 516 | 13 |   0 |   0 | 1.202965e+07 | 1.263837e+07 |   5.06%| unknown
 19.3s|     1 |     0 | 10440 |     - |   761M |   0 |  45k|5099 |5629 | 530 | 14 |   0 |   0 | 1.204293e+07 | 1.263837e+07 |   4.94%| unknown
 22.3s|     1 |     0 | 11735 |     - |   763M |   0 |  45k|5099 |5652 | 553 | 15 |   0 |   0 | 1.205855e+07 | 1.263837e+07 |   4.81%| unknown
 24.3s|     1 |     0 | 12525 |     - |   765M |   0 |  45k|5099 |5565 | 569 | 16 |   0 |   0 | 1.207387e+07 | 1.263837e+07 |   4.68%| unknown
 27.3s|     1 |     0 | 13703 |     - |   768M |   0 |  45k|5099 |5585 | 589 | 17 |   0 |   0 | 1.209760e+07 | 1.263837e+07 |   4.47%| unknown
 29.8s|     1 |     0 | 14921 |     - |   769M |   0 |  45k|5099 |5610 | 614 | 18 |   0 |   0 | 1.211225e+07 | 1.263837e+07 |   4.34%| unknown
 31.7s|     1 |     0 | 15908 |     - |   772M |   0 |  45k|5099 |5629 | 633 | 19 |   0 |   0 | 1.212908e+07 | 1.263837e+07 |   4.20%| unknown
 35.1s|     1 |     0 | 17883 |     - |   773M |   0 |  45k|5099 |5655 | 659 | 20 |   0 |   0 | 1.214350e+07 | 1.263837e+07 |   4.08%| unknown
 37.2s|     1 |     0 | 18865 |     - |   775M |   0 |  45k|5099 |5679 | 683 | 21 |   0 |   0 | 1.215204e+07 | 1.263837e+07 |   4.00%| unknown
 40.6s|     1 |     0 | 20820 |     - |   776M |   0 |  45k|5099 |5627 | 700 | 22 |   0 |   0 | 1.217283e+07 | 1.263837e+07 |   3.82%| unknown
 41.9s|     1 |     0 | 21454 |     - |   778M |   0 |  45k|5099 |5650 | 723 | 23 |   0 |   0 | 1.217686e+07 | 1.263837e+07 |   3.79%| unknown
 44.2s|     1 |     0 | 22846 |     - |   780M |   0 |  45k|5099 |5673 | 746 | 24 |   0 |   0 | 1.218606e+07 | 1.263837e+07 |   3.71%| unknown
 45.5s|     1 |     0 | 23457 |     - |   783M |   0 |  45k|5099 |5690 | 763 | 25 |   0 |   0 | 1.219313e+07 | 1.263837e+07 |   3.65%| unknown
 47.1s|     1 |     0 | 24029 |     - |   785M |   0 |  45k|5099 |5703 | 776 | 26 |   0 |   0 | 1.219870e+07 | 1.263837e+07 |   3.60%| unknown
 time | node  | left  |LP iter|LP it/n|mem/heur|mdpt |vars |cons |rows |cuts |sepa|confs|strbr|  dualbound   | primalbound  |  gap   | compl. 
 49.7s|     1 |     0 | 25503 |     - |   787M |   0 |  45k|5099 |5730 | 803 | 27 |   0 |   0 | 1.220908e+07 | 1.263837e+07 |   3.52%| unknown
 51.6s|     1 |     0 | 26423 |     - |   788M |   0 |  45k|5099 |5686 | 822 | 28 |   0 |   0 | 1.221736e+07 | 1.263837e+07 |   3.45%| unknown
 52.7s|     1 |     0 | 26945 |     - |   791M |   0 |  45k|5099 |5703 | 839 | 29 |   0 |   0 | 1.222230e+07 | 1.263837e+07 |   3.40%| unknown
 54.7s|     1 |     0 | 28101 |     - |   793M |   0 |  45k|5099 |5722 | 858 | 30 |   0 |   0 | 1.223036e+07 | 1.263837e+07 |   3.34%| unknown
 57.0s|     1 |     0 | 29350 |     - |   795M |   0 |  45k|5099 |5735 | 871 | 31 |   0 |   0 | 1.223588e+07 | 1.263837e+07 |   3.29%| unknown
 59.5s|     1 |     0 | 30705 |     - |   796M |   0 |  45k|5099 |5751 | 887 | 32 |   0 |   0 | 1.224409e+07 | 1.263837e+07 |   3.22%| unknown
 61.9s|     1 |     0 | 31941 |     - |   798M |   0 |  45k|5099 |5775 | 911 | 33 |   0 |   0 | 1.225028e+07 | 1.263837e+07 |   3.17%| unknown
 64.3s|     1 |     0 | 33251 |     - |   799M |   0 |  45k|5099 |5718 | 936 | 34 |   0 |   0 | 1.225720e+07 | 1.263837e+07 |   3.11%| unknown
 65.4s|     1 |     0 | 33662 |     - |   801M |   0 |  45k|5099 |5724 | 942 | 35 |   0 |   0 | 1.225993e+07 | 1.263837e+07 |   3.09%| unknown
 66.9s|     1 |     0 | 34424 |     - |   802M |   0 |  45k|5099 |5741 | 959 | 36 |   0 |   0 | 1.226470e+07 | 1.263837e+07 |   3.05%| unknown
r66.9s|     1 |     0 | 34424 |     - |simplero|   0 |  45k|5099 |5741 | 959 | 36 |   0 |   0 | 1.226470e+07 | 1.259396e+07 |   2.68%| unknown
 68.0s|     1 |     0 | 34995 |     - |   804M |   0 |  45k|5099 |5743 | 961 | 37 |   0 |   0 | 1.226605e+07 | 1.259396e+07 |   2.67%| unknown
 70.1s|     1 |     0 | 36081 |     - |   805M |   0 |  45k|5099 |5758 | 976 | 38 |   0 |   0 | 1.226791e+07 | 1.259396e+07 |   2.66%| unknown
 71.4s|     1 |     0 | 36561 |     - |   807M |   0 |  45k|5099 |5762 | 980 | 39 |   0 |   0 | 1.226978e+07 | 1.259396e+07 |   2.64%| unknown
 72.6s|     1 |     0 | 37084 |     - |   808M |   0 |  45k|5099 |5680 | 984 | 40 |   0 |   0 | 1.227091e+07 | 1.259396e+07 |   2.63%| unknown
 time | node  | left  |LP iter|LP it/n|mem/heur|mdpt |vars |cons |rows |cuts |sepa|confs|strbr|  dualbound   | primalbound  |  gap   | compl. 
 74.1s|     1 |     0 | 37741 |     - |   809M |   0 |  45k|5099 |5685 | 989 | 41 |   0 |   0 | 1.227135e+07 | 1.259396e+07 |   2.63%| unknown
 75.4s|     1 |     0 | 38376 |     - |   810M |   0 |  45k|5099 |5692 | 996 | 42 |   0 |   0 | 1.227436e+07 | 1.259396e+07 |   2.60%| unknown
 77.0s|     1 |     0 | 38852 |     - |   812M |   0 |  45k|5099 |5698 |1002 | 43 |   0 |   0 | 1.227552e+07 | 1.259396e+07 |   2.59%| unknown
 78.2s|     1 |     0 | 39320 |     - |   813M |   0 |  45k|5099 |5704 |1008 | 44 |   0 |   0 | 1.227765e+07 | 1.259396e+07 |   2.58%| unknown
r78.3s|     1 |     0 | 39320 |     - |simplero|   0 |  45k|5099 |5704 |1008 | 44 |   0 |   0 | 1.227765e+07 | 1.251400e+07 |   1.93%| unknown
r78.3s|     1 |     0 | 39320 |     - |rounding|   0 |  45k|5099 |5704 |1008 | 44 |   0 |   0 | 1.227765e+07 | 1.251400e+07 |   1.93%| unknown
 78.6s|     1 |     0 | 39426 |     - |   816M |   0 |  45k|5099 |5707 |1011 | 45 |   0 |   0 | 1.227805e+07 | 1.251400e+07 |   1.92%| unknown
 79.9s|     1 |     0 | 40165 |     - |   818M |   0 |  45k|5099 |5611 |1013 | 46 |   0 |   0 | 1.227847e+07 | 1.251400e+07 |   1.92%| unknown
 80.9s|     1 |     0 | 40565 |     - |   819M |   0 |  45k|5099 |5620 |1022 | 47 |   0 |   0 | 1.227876e+07 | 1.251400e+07 |   1.92%| unknown
 81.3s|     1 |     0 | 40570 |     - |   820M |   0 |  45k|5099 |5626 |1028 | 48 |   0 |   0 | 1.227878e+07 | 1.251400e+07 |   1.92%| unknown
d81.3s|     1 |     0 | 40570 |     - |farkasdi|   0 |  45k|5099 |5626 |   0 | 50 |   0 |   0 | 1.227878e+07 | 1.227878e+07 |   0.00%| unknown
 81.3s|     1 |     0 | 40570 |     - |   821M |   0 |  45k|5099 |5626 |1028 | 50 |   0 |   0 | 1.227878e+07 | 1.227878e+07 |   0.00%| unknown

SCIP Status        : problem is solved [optimal solution found]
Solving Time (sec) : 81.33
Solving Nodes      : 1
Primal Bound       : +1.22787804311476e+07 (52 solutions)
Dual Bound         : +1.22787804311476e+07
Gap                : 0.00 %
Solve Status: optimal
Solve Time: 81.42 seconds
